robust/generate/spp_dkp_Lefebvre_et_al_2026/src/shortest_path_5_1.kp
43
92

[0.66 3.5 0.77 1.38 1.88 4.94 3.83 3.11 0.17 4.22 2.27 4.61 1.46 0.33 4.98 1.27]

[58 35 35 51 73 49 30 85 39 82 92 58 4 58 90 76]
